experiment/data/lkh-res/Vrp-Set-Li-n961/Vrp-Set-Li-n961-lkh/0.lkh1.tour
NAME : 0.2976042.tour
COMMENT : Length = 2976042
COMMENT : Found by LKH-3 [Keld Helsgaun] Tue Apr  9 02:31:34 2024
TYPE : TOUR
DIMENSION : 970
TOUR_SECTION
1
3
4
44
43
83
84
124
123
163
164
165
205
245
285
325
365
405
445
485
525
565
605
645
685
725
765
805
845
885
925
924
884
844
804
764
724
684
644
604
564
524
484
444
404
364
324
284
244
204
203
243
283
323
363
403
443
483
523
563
603
643
683
723
763
803
843
883
923
922
882
842
802
762
722
682
642
602
562
522
482
601
561
521
481
441
442
402
362
322
282
242
281
241
202
162
201
161
122
82
42
2
41
968
23
22
21
61
101
141
142
143
183
182
222
223
263
262
302
342
303
343
383
423
382
422
462
502
542
463
503
543
583
623
663
703
582
622
662
702
742
782
822
862
902
942
943
903
863
823
783
743
944
904
864
824
784
744
704
664
624
584
544
504
464
424
384
344
304
264
224
184
144
104
103
102
62
63
64
24
966
31
32
33
34
74
73
113
114
154
153
152
151
191
192
232
272
312
352
392
432
472
512
552
592
632
672
712
752
792
832
872
912
952
951
911
871
831
791
751
711
671
631
591
551
511
471
431
391
351
311
271
231
230
270
310
350
390
430
470
510
550
590
630
670
710
750
790
830
870
910
950
949
909
869
829
789
749
709
669
629
589
549
509
469
429
389
349
309
269
229
189
190
150
110
111
112
72
71
70
30
965
6
5
45
46
47
48
88
87
86
85
125
126
127
128
168
167
166
206
246
286
326
366
406
446
486
526
566
606
646
686
726
766
806
846
886
926
927
887
847
807
767
727
687
647
607
567
527
487
447
407
367
327
287
247
207
208
248
288
328
368
408
448
488
528
568
608
648
688
728
768
808
848
888
928
929
889
849
809
769
729
689
649
609
569
529
489
449
409
369
329
289
249
209
169
129
89
49
9
8
7
962
27
28
29
69
68
67
66
106
107
108
109
149
148
147
146
186
187
188
228
268
308
348
388
428
468
508
548
588
628
668
708
748
788
828
868
908
948
947
907
867
827
787
747
707
667
627
587
547
507
467
427
387
347
307
267
227
226
266
306
346
386
426
466
506
546
586
626
666
706
746
786
826
866
906
946
945
905
865
825
785
745
705
665
625
585
545
505
465
425
385
345
305
265
225
185
145
105
65
25
26
970
19
59
99
98
138
139
179
178
218
258
298
338
378
418
458
498
538
578
618
658
698
738
778
818
858
898
938
939
899
859
819
779
739
699
659
619
579
539
499
459
419
379
339
299
259
219
220
260
300
340
380
420
460
500
540
580
620
660
700
740
780
820
860
900
940
941
901
861
821
781
741
701
661
621
581
541
501
461
421
381
341
301
261
221
181
180
140
100
60
20
969
16
15
55
95
135
175
174
214
254
294
334
374
414
454
494
534
574
614
654
694
734
774
814
854
894
934
935
895
855
815
775
735
695
655
615
575
535
495
455
415
375
335
295
255
215
216
256
296
336
376
416
456
496
536
576
616
656
696
736
776
816
856
896
936
937
897
857
817
777
737
697
657
617
577
537
497
457
417
377
337
297
257
217
177
176
136
137
97
96
56
57
58
18
17
964
11
12
13
14
54
53
52
92
93
94
134
133
132
172
173
213
253
293
333
373
413
453
493
533
573
613
653
693
733
773
813
853
893
933
932
892
852
812
772
732
692
652
612
572
532
492
452
412
372
332
292
252
212
211
251
291
331
371
411
451
491
531
571
611
651
691
731
771
811
851
891
931
930
890
850
810
770
730
690
650
610
570
530
490
450
410
370
330
290
250
210
170
171
131
130
90
91
51
50
10
963
38
78
77
76
116
117
118
158
157
156
196
236
276
316
356
396
436
476
516
556
596
636
676
716
756
796
836
876
916
956
955
915
875
835
795
755
715
675
635
595
555
515
475
435
395
355
315
275
235
234
274
314
354
394
434
474
514
554
594
634
674
714
754
794
834
874
914
954
953
913
873
833
793
753
713
673
633
593
553
513
473
433
393
353
313
273
233
193
194
195
155
115
75
35
36
37
967
40
80
81
121
120
160
200
240
280
320
321
361
401
360
400
440
480
520
560
600
640
680
720
760
641
681
721
761
801
841
881
921
961
960
920
880
840
800
959
919
879
839
799
759
719
679
639
599
559
519
479
439
399
359
319
279
239
238
278
318
358
398
438
478
518
558
598
638
678
718
758
798
838
878
918
958
957
917
877
837
797
757
717
677
637
597
557
517
477
437
397
357
317
277
237
197
198
199
159
119
79
39
-1
EOF
